NAME          COPTPROB
OBJSENSE
  MIN
ROWS
 N  __OBJ___
 L  C0      
 L  C1      
 L  C2      
 L  C5      
 L  C7      
 L  C8      
 L  C9      
 L  C10     
 L  C12     
 L  C15     
 L  C23     
 L  C24     
 L  C29     
 L  C30     
 L  C31     
 L  C33     
 L  C36     
 L  C39     
 L  C40     
 L  C41     
 L  C44     
 L  C45     
 L  C48     
 L  C49     
 L  C50     
 L  C54     
 L  C55     
 L  C57     
 L  C59     
 L  C60     
 L  C66     
 L  C71     
 L  C72     
 L  C73     
 L  C74     
 L  C75     
 L  C76     
 L  C77     
 L  C78     
 L  C80     
 L  C81     
 L  C83     
 L  C84     
 L  C85     
 L  C87     
 L  C90     
 L  C91     
 L  C92     
 L  C93     
 L  C94     
 L  C99     
 L  C102    
 L  C104    
 L  C106    
 L  C107    
 L  C109    
 L  C110    
 L  C111    
 L  C112    
 L  C113    
 L  C114    
 L  C115    
 L  C116    
 L  C117    
 L  C118    
 L  C119    
 L  C120    
 L  C121    
 L  C122    
 L  C123    
 L  C126    
 L  C132    
 L  C135    
 L  C136    
 L  C138    
 L  C140    
 L  C141    
 L  C142    
 L  C143    
 L  C144    
 L  C145    
 L  C147    
 L  C150    
 L  C151    
 L  C152    
 L  C153    
 L  C154    
 L  C155    
 L  C156    
 L  C157    
 L  C159    
 L  C160    
 L  C161    
 L  C162    
 L  C163    
 L  C164    
 L  C165    
 L  C171    
 L  C172    
 L  C173    
 L  C174    
 L  C175    
 L  C177    
 L  C179    
 L  C180    
 L  C181    
 L  C182    
 L  C187    
 L  C189    
 L  C190    
 L  C191    
 L  C192    
 L  C200    
 L  C201    
 L  C204    
 L  C205    
 L  C207    
 L  C210    
 L  C211    
 L  C213    
 L  C214    
 L  C216    
 L  C221    
 L  C224    
 L  C225    
 L  C227    
 L  C228    
 L  C233    
 L  C234    
 L  C235    
 L  C236    
 L  C241    
 L  C243    
 L  C244    
 L  C245    
 L  C247    
 L  C249    
 L  C250    
 L  C251    
 L  C252    
 L  C255    
 L  C256    
 L  C259    
 L  C260    
 L  C266    
 L  C268    
 L  C270    
 L  C271    
 L  C272    
 L  C273    
 L  C276    
 L  C277    
 L  C278    
 L  C279    
 L  C280    
 L  C281    
 L  C284    
 L  C291    
 L  C292    
 L  C294    
 L  C295    
 L  C300    
 L  C302    
 L  C306    
 L  C307    
 L  C308    
 L  C310    
 L  C311    
 L  C312    
 L  C313    
 L  C314    
 L  C315    
 L  C316    
 L  C317    
 L  C318    
 L  C320    
 L  C322    
 L  C324    
 L  C325    
 L  C327    
 L  C328    
 L  C330    
 L  C331    
 L  C332    
 L  C333    
 L  C335    
 L  C336    
 L  C338    
 L  C339    
 L  C343    
 L  C346    
 L  C348    
 L  C351    
 L  C355    
 L  C357    
 L  C360    
 L  C361    
 L  C362    
 L  C363    
 L  C365    
 L  C366    
 L  C367    
 L  C368    
 L  C369    
 L  C370    
 L  C371    
 L  C374    
 L  C379    
 L  C383    
 L  C385    
 L  C388    
 L  C391    
 L  C392    
 L  C394    
 L  C396    
 L  C397    
 L  C399    
COLUMNS
    MARKER    'MARKER'                 'INTORG'
    x2        __OBJ___  28
    x2        C36       -1
    x2        C119      -1
    x2        C284      -1
    x5        __OBJ___  72
    x5        C76       -1
    x5        C221      -1
    x9        __OBJ___  420
    x9        C2        -1
    x9        C5        -1
    x9        C8        -1
    x9        C314      -1
    x10       __OBJ___  647
    x10       C107      -1
    x10       C210      -1
    x10       C235      -1
    x11       __OBJ___  719
    x11       C81       -1
    x11       C190      -1
    x11       C224      -1
    x11       C278      -1
    x12       __OBJ___  213
    x12       C213      -1
    x12       C325      -1
    x17       __OBJ___  260
    x17       C44       -1
    x17       C335      -1
    x17       C361      -1
    x18       __OBJ___  705
    x18       C24       -1
    x18       C150      -1
    x18       C324      -1
    x18       C396      -1
    x20       __OBJ___  760
    x20       C31       -1
    x20       C225      -1
    x20       C268      -1
    x20       C300      -1
    x20       C311      -1
    x22       __OBJ___  604
    x22       C54       -1
    x22       C318      -1
    x22       C367      -1
    x23       __OBJ___  879
    x23       C0        -1
    x23       C60       -1
    x23       C227      -1
    x23       C328      -1
    x24       __OBJ___  266
    x24       C331      -1
    x29       __OBJ___  549
    x29       C39       -1
    x29       C123      -1
    x32       __OBJ___  683
    x32       C15       -1
    x32       C144      -1
    x33       __OBJ___  976
    x33       C40       -1
    x33       C156      -1
    x33       C160      -1
    x33       C182      -1
    x33       C192      -1
    x34       __OBJ___  761
    x34       C157      -1
    x34       C315      -1
    x36       __OBJ___  631
    x36       C72       -1
    x36       C187      -1
    x36       C200      -1
    x36       C249      -1
    x36       C368      -1
    x36       C371      -1
    x38       __OBJ___  418
    x38       C91       -1
    x38       C191      -1
    x39       __OBJ___  285
    x39       C74       -1
    x39       C216      -1
    x39       C245      -1
    x40       __OBJ___  643
    x40       C59       -1
    x40       C141      -1
    x40       C153      -1
    x40       C211      -1
    x40       C279      -1
    x40       C308      -1
    x40       C360      -1
    x41       __OBJ___  181
    x41       C140      -1
    x41       C152      -1
    x41       C391      -1
    x42       __OBJ___  239
    x42       C55       -1
    x42       C57       -1
    x42       C66       -1
    x42       C111      -1
    x42       C307      -1
    x42       C312      -1
    x43       __OBJ___  815
    x43       C122      -1
    x43       C189      -1
    x43       C228      -1
    x45       __OBJ___  387
    x45       C10       -1
    x45       C48       -1
    x45       C135      -1
    x45       C327      -1
    x45       C369      -1
    x48       __OBJ___  779
    x48       C90       -1
    x48       C151      -1
    x48       C266      -1
    x49       __OBJ___  113
    x49       C117      -1
    x49       C121      -1
    x49       C397      -1
    x50       __OBJ___  407
    x50       C50       -1
    x50       C114      -1
    x50       C317      -1
    x52       __OBJ___  766
    x52       C84       -1
    x52       C177      -1
    x52       C236      -1
    x52       C256      -1
    x52       C362      -1
    x53       __OBJ___  693
    x53       C94       -1
    x53       C205      -1
    x53       C207      -1
    x53       C276      -1
    x53       C357      -1
    x56       __OBJ___  31
    x56       C1        -1
    x56       C306      -1
    x56       C399      -1
    x57       __OBJ___  985
    x57       C112      -1
    x57       C163      -1
    x57       C255      -1
    x57       C348      -1
    x61       __OBJ___  161
    x61       C41       -1
    x61       C233      -1
    x61       C277      -1
    x61       C310      -1
    x61       C351      -1
    x61       C392      -1
    x62       __OBJ___  867
    x62       C77       -1
    x62       C113      -1
    x62       C154      -1
    x62       C259      -1
    x62       C295      -1
    x63       __OBJ___  808
    x63       C78       -1
    x63       C93       -1
    x63       C99       -1
    x63       C174      -1
    x63       C332      -1
    x64       __OBJ___  702
    x64       C73       -1
    x64       C87       -1
    x64       C339      -1
    x67       __OBJ___  326
    x67       C92       -1
    x67       C136      -1
    x67       C243      -1
    x67       C247      -1
    x67       C294      -1
    x69       __OBJ___  706
    x69       C109      -1
    x69       C145      -1
    x69       C159      -1
    x69       C316      -1
    x71       __OBJ___  836
    x71       C102      -1
    x71       C118      -1
    x71       C138      -1
    x71       C161      -1
    x71       C273      -1
    x72       __OBJ___  343
    x72       C132      -1
    x72       C165      -1
    x72       C172      -1
    x72       C355      -1
    x73       __OBJ___  315
    x73       C33       -1
    x73       C104      -1
    x79       __OBJ___  523
    x79       C120      -1
    x79       C333      -1
    x81       __OBJ___  28
    x81       C12       -1
    x81       C336      -1
    x84       __OBJ___  440
    x84       C7        -1
    x84       C9        -1
    x84       C162      -1
    x84       C343      -1
    x85       __OBJ___  810
    x85       C370      -1
    x85       C383      -1
    x88       __OBJ___  201
    x88       C83       -1
    x88       C270      -1
    x88       C320      -1
    x88       C338      -1
    x90       __OBJ___  231
    x90       C29       -1
    x90       C175      -1
    x90       C322      -1
    x92       __OBJ___  950
    x92       C23       -1
    x92       C106      -1
    x92       C179      -1
    x92       C292      -1
    x92       C302      -1
    x93       __OBJ___  309
    x93       C143      -1
    x93       C204      -1
    x93       C346      -1
    x93       C379      -1
    x93       C394      -1
    x102      __OBJ___  167
    x102      C49       -1
    x102      C140      -1
    x102      C143      -1
    x103      __OBJ___  338
    x103      C2        -1
    x103      C33       -1
    x103      C39       -1
    x103      C159      -1
    x103      C160      -1
    x103      C348      -1
    x104      __OBJ___  276
    x104      C142      -1
    x104      C327      -1
    x104      C336      -1
    x105      __OBJ___  39
    x105      C111      -1
    x105      C159      -1
    x105      C175      -1
    x105      C281      -1
    x105      C374      -1
    x106      __OBJ___  824
    x106      C31       -1
    x106      C81       -1
    x106      C126      -1
    x106      C224      -1
    x106      C320      -1
    x106      C388      -1
    x107      __OBJ___  392
    x107      C159      -1
    x107      C243      -1
    x107      C338      -1
    x109      __OBJ___  9
    x109      C110      -1
    x109      C369      -1
    x111      __OBJ___  424
    x111      C201      -1
    x111      C370      -1
    x112      __OBJ___  654
    x112      C72       -1
    x112      C156      -1
    x112      C276      -1
    x114      __OBJ___  657
    x114      C45       -1
    x114      C171      -1
    x114      C249      -1
    x118      __OBJ___  479
    x118      C200      -1
    x118      C245      -1
    x118      C324      -1
    x119      __OBJ___  237
    x119      C9        -1
    x121      __OBJ___  312
    x121      C72       -1
    x122      __OBJ___  132
    x122      C29       -1
    x122      C57       -1
    x126      __OBJ___  384
    x126      C162      -1
    x126      C256      -1
    x128      __OBJ___  526
    x128      C106      -1
    x128      C114      -1
    x128      C163      -1
    x128      C177      -1
    x128      C280      -1
    x129      __OBJ___  3
    x129      C363      -1
    x131      __OBJ___  144
    x131      C317      -1
    x133      __OBJ___  315
    x133      C163      -1
    x133      C190      -1
    x133      C243      -1
    x134      __OBJ___  554
    x134      C235      -1
    x134      C255      -1
    x135      __OBJ___  555
    x135      C123      -1
    x135      C145      -1
    x135      C241      -1
    x136      __OBJ___  225
    x136      C12       -1
    x136      C213      -1
    x137      __OBJ___  852
    x137      C44       -1
    x137      C164      -1
    x137      C236      -1
    x137      C241      -1
    x137      C266      -1
    x137      C360      -1
    x138      __OBJ___  612
    x138      C55       -1
    x138      C175      -1
    x138      C224      -1
    x138      C241      -1
    x141      __OBJ___  102
    x141      C140      -1
    x142      __OBJ___  503
    x142      C113      -1
    x142      C331      -1
    x142      C363      -1
    x144      __OBJ___  197
    x144      C49       -1
    x144      C225      -1
    x144      C235      -1
    x145      __OBJ___  55
    x145      C214      -1
    x145      C278      -1
    x146      __OBJ___  324
    x146      C210      -1
    x146      C211      -1
    x146      C385      -1
    x152      __OBJ___  697
    x152      C207      -1
    x152      C221      -1
    x156      __OBJ___  378
    x156      C30       -1
    x156      C41       -1
    x156      C150      -1
    x156      C276      -1
    x157      __OBJ___  742
    x157      C93       -1
    x157      C205      -1
    x157      C320      -1
    x159      __OBJ___  326
    x159      C45       -1
    x159      C74       -1
    x159      C91       -1
    x159      C370      -1
    x163      __OBJ___  884
    x163      C278      -1
    x163      C327      -1
    x163      C368      -1
    x166      __OBJ___  850
    x166      C30       -1
    x166      C75       -1
    x166      C151      -1
    x168      __OBJ___  942
    x168      C66       -1
    x168      C157      -1
    x168      C388      -1
    x169      __OBJ___  776
    x169      C112      -1
    x169      C368      -1
    x171      __OBJ___  760
    x171      C78       -1
    x171      C107      -1
    x171      C312      -1
    x172      __OBJ___  196
    x172      C138      -1
    x172      C143      -1
    x172      C311      -1
    x174      __OBJ___  784
    x174      C211      -1
    x174      C227      -1
    x174      C366      -1
    x175      __OBJ___  629
    x175      C259      -1
    x175      C318      -1
    x176      __OBJ___  502
    x176      C87       -1
    x176      C144      -1
    x176      C221      -1
    x177      __OBJ___  591
    x177      C227      -1
    x177      C268      -1
    x182      __OBJ___  129
    x182      C80       -1
    x182      C141      -1
    x182      C221      -1
    x185      __OBJ___  226
    x185      C308      -1
    x185      C357      -1
    x189      __OBJ___  48
    x189      C115      -1
    x189      C234      -1
    x191      __OBJ___  266
    x191      C73       -1
    x191      C294      -1
    x191      C351      -1
    x192      __OBJ___  435
    x192      C23       -1
    x192      C113      -1
    x192      C181      -1
    x193      __OBJ___  378
    x193      C93       -1
    x193      C316      -1
    x193      C360      -1
    x194      __OBJ___  25
    x194      C1        -1
    x194      C147      -1
    x194      C159      -1
    x194      C278      -1
    x196      __OBJ___  124
    x196      C10       -1
    x196      C363      -1
    x196      C388      -1
    x197      __OBJ___  15
    x197      C180      -1
    x197      C244      -1
    x197      C251      -1
    x200      __OBJ___  489
    x200      C90       -1
    x200      C234      -1
    x202      __OBJ___  141
    x202      C235      -1
    x202      C280      -1
    x203      __OBJ___  357
    x203      C74       -1
    x203      C109      -1
    x203      C189      -1
    x203      C355      -1
    x205      __OBJ___  152
    x205      C23       -1
    x205      C84       -1
    x205      C251      -1
    x207      __OBJ___  416
    x207      C112      -1
    x207      C221      -1
    x207      C245      -1
    x207      C330      -1
    x207      C397      -1
    x207      C399      -1
    x208      __OBJ___  307
    x208      C102      -1
    x208      C116      -1
    x211      __OBJ___  37
    x211      C57       -1
    x212      __OBJ___  48
    x212      C244      -1
    x212      C325      -1
    x213      __OBJ___  55
    x213      C0        -1
    x213      C163      -1
    x214      __OBJ___  253
    x214      C140      -1
    x214      C327      -1
    x215      __OBJ___  84
    x215      C41       -1
    x215      C272      -1
    x218      __OBJ___  543
    x218      C109      -1
    x218      C164      -1
    x218      C361      -1
    x219      __OBJ___  125
    x219      C142      -1
    x219      C160      -1
    x219      C171      -1
    x221      __OBJ___  195
    x221      C10       -1
    x221      C346      -1
    x222      __OBJ___  5
    x222      C292      -1
    x223      __OBJ___  3
    x223      C73       -1
    x223      C204      -1
    x223      C216      -1
    x224      __OBJ___  867
    x224      C179      -1
    x224      C216      -1
    x224      C251      -1
    x224      C313      -1
    x224      C322      -1
    x226      __OBJ___  431
    x226      C7        -1
    x226      C152      -1
    x227      __OBJ___  69
    x227      C54       -1
    x227      C160      -1
    x228      __OBJ___  168
    x228      C182      -1
    x230      __OBJ___  422
    x230      C92       -1
    x230      C109      -1
    x230      C172      -1
    x230      C397      -1
    x231      __OBJ___  323
    x231      C8        -1
    x231      C107      -1
    x232      __OBJ___  59
    x232      C391      -1
    x234      __OBJ___  276
    x234      C81       -1
    x234      C91       -1
    x234      C256      -1
    x234      C391      -1
    x236      __OBJ___  207
    x236      C30       -1
    x236      C40       -1
    x236      C155      -1
    x236      C320      -1
    x239      __OBJ___  188
    x239      C57       -1
    x239      C346      -1
    x242      __OBJ___  433
    x242      C2        -1
    x242      C31       -1
    x242      C135      -1
    x242      C294      -1
    x243      __OBJ___  829
    x243      C122      -1
    x243      C123      -1
    x243      C182      -1
    x246      __OBJ___  628
    x246      C9        -1
    x246      C99       -1
    x246      C117      -1
    x246      C316      -1
    x246      C346      -1
    x247      __OBJ___  900
    x247      C94       -1
    x247      C163      -1
    x247      C355      -1
    x248      __OBJ___  743
    x248      C77       -1
    x248      C187      -1
    x248      C190      -1
    x248      C362      -1
    x249      __OBJ___  440
    x249      C291      -1
    x249      C396      -1
    x252      __OBJ___  154
    x252      C311      -1
    x252      C351      -1
    x253      __OBJ___  106
    x253      C36       -1
    x253      C155      -1
    x254      __OBJ___  732
    x254      C114      -1
    x254      C228      -1
    x254      C255      -1
    x255      __OBJ___  605
    x255      C81       -1
    x255      C278      -1
    x255      C367      -1
    x255      C391      -1
    x256      __OBJ___  643
    x256      C78       -1
    x256      C260      -1
    x256      C277      -1
    x256      C313      -1
    x257      __OBJ___  803
    x257      C145      -1
    x257      C228      -1
    x261      __OBJ___  944
    x261      C83       -1
    x261      C91       -1
    x261      C249      -1
    x265      __OBJ___  298
    x265      C114      -1
    x265      C201      -1
    x265      C252      -1
    x265      C343      -1
    x268      __OBJ___  196
    x268      C60       -1
    x268      C308      -1
    x269      __OBJ___  331
    x269      C44       -1
    x269      C250      -1
    x269      C330      -1
    x271      __OBJ___  764
    x271      C150      -1
    x271      C228      -1
    x271      C370      -1
    x273      __OBJ___  50
    x273      C39       -1
    x273      C136      -1
    x273      C165      -1
    x277      __OBJ___  939
    x277      C83       -1
    x277      C116      -1
    x277      C268      -1
    x278      __OBJ___  72
    x278      C71       -1
    x278      C165      -1
    x278      C369      -1
    x279      __OBJ___  636
    x279      C1        -1
    x279      C104      -1
    x279      C132      -1
    x279      C160      -1
    x279      C173      -1
    x280      __OBJ___  712
    x280      C91       -1
    x280      C367      -1
    x281      __OBJ___  3
    x281      C77       -1
    x282      __OBJ___  48
    x282      C154      -1
    x282      C273      -1
    x282      C328      -1
    x283      __OBJ___  535
    x283      C55       -1
    x283      C85       -1
    x283      C348      -1
    x288      __OBJ___  296
    x288      C355      -1
    x288      C371      -1
    x289      __OBJ___  310
    x289      C5        -1
    x289      C204      -1
    x289      C331      -1
    x289      C357      -1
    x293      __OBJ___  614
    x293      C120      -1
    x293      C247      -1
    x293      C259      -1
    x293      C311      -1
    x294      __OBJ___  111
    x294      C126      -1
    x297      __OBJ___  6
    x297      C252      -1
    x297      C260      -1
    x299      __OBJ___  967
    x299      C36       -1
    x299      C111      -1
    x299      C123      -1
    x299      C271      -1
    x300      __OBJ___  405
    x300      C113      -1
    x300      C140      -1
    x300      C159      -1
    x301      __OBJ___  972
    x301      C151      -1
    x301      C153      -1
    x301      C191      -1
    x302      __OBJ___  350
    x302      C110      -1
    x302      C120      -1
    x302      C259      -1
    x302      C315      -1
    x304      __OBJ___  315
    x304      C161      -1
    x304      C307      -1
    x306      __OBJ___  746
    x306      C50       -1
    x306      C157      -1
    x307      __OBJ___  920
    x307      C66       -1
    x307      C110      -1
    x307      C260      -1
    x307      C306      -1
    x307      C339      -1
    x309      __OBJ___  545
    x309      C147      -1
    x309      C302      -1
    x309      C320      -1
    x309      C394      -1
    x310      __OBJ___  62
    x310      C59       -1
    x310      C277      -1
    x313      __OBJ___  489
    x313      C270      -1
    x313      C271      -1
    x314      __OBJ___  333
    x314      C228      -1
    x314      C322      -1
    x315      __OBJ___  50
    x315      C276      -1
    x315      C306      -1
    x315      C362      -1
    x317      __OBJ___  525
    x317      C9        -1
    x317      C60       -1
    x317      C71       -1
    x317      C154      -1
    x317      C159      -1
    x317      C233      -1
    x318      __OBJ___  354
    x318      C87       -1
    x318      C214      -1
    x318      C284      -1
    x318      C396      -1
    x319      __OBJ___  242
    x319      C116      -1
    x319      C247      -1
    x319      C379      -1
    x322      __OBJ___  898
    x322      C192      -1
    x322      C213      -1
    x323      __OBJ___  2
    x323      C73       -1
    x323      C106      -1
    x323      C300      -1
    x323      C308      -1
    x323      C374      -1
    x324      __OBJ___  189
    x324      C135      -1
    x324      C260      -1
    x324      C317      -1
    x326      __OBJ___  200
    x326      C24       -1
    x326      C181      -1
    x326      C191      -1
    x326      C317      -1
    x326      C343      -1
    x327      __OBJ___  139
    x327      C162      -1
    x327      C236      -1
    x327      C260      -1
    x328      __OBJ___  352
    x328      C75       -1
    x328      C325      -1
    x329      __OBJ___  14
    x329      C273      -1
    x329      C281      -1
    x329      C379      -1
    x333      __OBJ___  959
    x333      C74       -1
    x333      C90       -1
    x333      C99       -1
    x333      C245      -1
    x333      C266      -1
    x334      __OBJ___  834
    x334      C80       -1
    x334      C153      -1
    x334      C235      -1
    x334      C295      -1
    x335      __OBJ___  262
    x335      C118      -1
    x335      C119      -1
    x335      C126      -1
    x335      C332      -1
    x335      C392      -1
    x336      __OBJ___  201
    x336      C163      -1
    x336      C291      -1
    x336      C360      -1
    x338      __OBJ___  111
    x338      C102      -1
    x338      C235      -1
    x340      __OBJ___  73
    x340      C173      -1
    x340      C279      -1
    x341      __OBJ___  370
    x341      C271      -1
    x341      C374      -1
    x343      __OBJ___  455
    x343      C49       -1
    x343      C210      -1
    x343      C224      -1
    x346      __OBJ___  783
    x346      C122      -1
    x346      C164      -1
    x347      __OBJ___  391
    x347      C15       -1
    x347      C388      -1
    x350      __OBJ___  127
    x350      C2        -1
    x350      C29       -1
    x350      C200      -1
    x350      C276      -1
    x351      __OBJ___  665
    x351      C36       -1
    x351      C113      -1
    x351      C121      -1
    x351      C143      -1
    x351      C163      -1
    x351      C173      -1
    x351      C182      -1
    x352      __OBJ___  138
    x352      C50       -1
    x352      C76       -1
    x354      __OBJ___  4
    x354      C174      -1
    x354      C272      -1
    x354      C385      -1
    x355      __OBJ___  637
    x355      C111      -1
    x355      C112      -1
    x355      C330      -1
    x357      __OBJ___  494
    x357      C205      -1
    x357      C365      -1
    x359      __OBJ___  342
    x359      C54       -1
    x359      C99       -1
    x359      C313      -1
    x359      C320      -1
    x361      __OBJ___  816
    x361      C256      -1
    x361      C259      -1
    x361      C369      -1
    x361      C383      -1
    x362      __OBJ___  937
    x362      C266      -1
    x362      C292      -1
    x362      C307      -1
    x362      C383      -1
    x362      C385      -1
    x364      __OBJ___  29
    x364      C308      -1
    x364      C365      -1
    x369      __OBJ___  25
    x369      C180      -1
    x369      C260      -1
    x369      C310      -1
    x370      __OBJ___  39
    x370      C48       -1
    x370      C80       -1
    x370      C109      -1
    x370      C335      -1
    x373      __OBJ___  472
    x373      C24       -1
    x373      C162      -1
    x373      C224      -1
    x373      C307      -1
    x376      __OBJ___  708
    x376      C36       -1
    x376      C90       -1
    x376      C92       -1
    x376      C150      -1
    x377      __OBJ___  120
    x377      C211      -1
    x377      C291      -1
    x379      __OBJ___  306
    x379      C118      -1
    x379      C270      -1
    x379      C314      -1
    x380      __OBJ___  585
    x380      C110      -1
    x380      C113      -1
    x380      C118      -1
    x380      C141      -1
    x382      __OBJ___  589
    x382      C159      -1
    x382      C182      -1
    x382      C255      -1
    x382      C330      -1
    x387      __OBJ___  739
    x387      C77       -1
    x387      C85       -1
    x387      C123      -1
    x387      C328      -1
    x392      __OBJ___  718
    x392      C1        -1
    x392      C112      -1
    x392      C113      -1
    x392      C333      -1
    x393      __OBJ___  417
    x393      C87       -1
    x393      C250      -1
    x397      __OBJ___  171
    x397      C115      -1
    x397      C366      -1
    x399      __OBJ___  686
    x399      C122      -1
    x399      C151      -1
    x399      C284      -1
    x400      __OBJ___  485
    x400      C153      -1
    MARKER    'MARKER'                 'INTEND'
RHS
    RHS       __OBJ___  -15266
    RHS       C0        -1
    RHS       C1        -1
    RHS       C2        -1
    RHS       C5        -1
    RHS       C7        -1
    RHS       C8        -1
    RHS       C9        -1
    RHS       C10       -1
    RHS       C12       -1
    RHS       C15       -1
    RHS       C23       -1
    RHS       C24       -1
    RHS       C29       -1
    RHS       C30       -1
    RHS       C31       -1
    RHS       C33       -1
    RHS       C36       -1
    RHS       C39       -1
    RHS       C40       -1
    RHS       C41       -1
    RHS       C44       -1
    RHS       C45       -1
    RHS       C48       -1
    RHS       C49       -1
    RHS       C50       -1
    RHS       C54       -1
    RHS       C55       -1
    RHS       C57       -1
    RHS       C59       -1
    RHS       C60       -1
    RHS       C66       -1
    RHS       C71       -1
    RHS       C72       -1
    RHS       C73       -1
    RHS       C74       -1
    RHS       C75       -1
    RHS       C76       -1
    RHS       C77       -1
    RHS       C78       -1
    RHS       C80       -1
    RHS       C81       -1
    RHS       C83       -1
    RHS       C84       -1
    RHS       C85       -1
    RHS       C87       -1
    RHS       C90       -1
    RHS       C91       -1
    RHS       C92       -1
    RHS       C93       -1
    RHS       C94       -1
    RHS       C99       -1
    RHS       C102      -1
    RHS       C104      -1
    RHS       C106      -1
    RHS       C107      -1
    RHS       C109      -1
    RHS       C110      -1
    RHS       C111      -1
    RHS       C112      -1
    RHS       C113      -1
    RHS       C114      -1
    RHS       C115      -1
    RHS       C116      -1
    RHS       C117      -1
    RHS       C118      -1
    RHS       C119      -1
    RHS       C120      -1
    RHS       C121      -1
    RHS       C122      -1
    RHS       C123      -1
    RHS       C126      -1
    RHS       C132      -1
    RHS       C135      -1
    RHS       C136      -1
    RHS       C138      -1
    RHS       C140      -1
    RHS       C141      -1
    RHS       C142      -1
    RHS       C143      -1
    RHS       C144      -1
    RHS       C145      -1
    RHS       C147      -1
    RHS       C150      -1
    RHS       C151      -1
    RHS       C152      -1
    RHS       C153      -1
    RHS       C154      -1
    RHS       C155      -1
    RHS       C156      -1
    RHS       C157      -1
    RHS       C159      -1
    RHS       C160      -1
    RHS       C161      -1
    RHS       C162      -1
    RHS       C163      -1
    RHS       C164      -1
    RHS       C165      -1
    RHS       C171      -1
    RHS       C172      -1
    RHS       C173      -1
    RHS       C174      -1
    RHS       C175      -1
    RHS       C177      -1
    RHS       C179      -1
    RHS       C180      -1
    RHS       C181      -1
    RHS       C182      -1
    RHS       C187      -1
    RHS       C189      -1
    RHS       C190      -1
    RHS       C191      -1
    RHS       C192      -1
    RHS       C200      -1
    RHS       C201      -1
    RHS       C204      -1
    RHS       C205      -1
    RHS       C207      -1
    RHS       C210      -1
    RHS       C211      -1
    RHS       C213      -1
    RHS       C214      -1
    RHS       C216      -1
    RHS       C221      -1
    RHS       C224      -1
    RHS       C225      -1
    RHS       C227      -1
    RHS       C228      -1
    RHS       C233      -1
    RHS       C234      -1
    RHS       C235      -1
    RHS       C236      -1
    RHS       C241      -1
    RHS       C243      -1
    RHS       C244      -1
    RHS       C245      -1
    RHS       C247      -1
    RHS       C249      -1
    RHS       C250      -1
    RHS       C251      -1
    RHS       C252      -1
    RHS       C255      -1
    RHS       C256      -1
    RHS       C259      -1
    RHS       C260      -1
    RHS       C266      -1
    RHS       C268      -1
    RHS       C270      -1
    RHS       C271      -1
    RHS       C272      -1
    RHS       C273      -1
    RHS       C276      -1
    RHS       C277      -1
    RHS       C278      -1
    RHS       C279      -1
    RHS       C280      -1
    RHS       C281      -1
    RHS       C284      -1
    RHS       C291      -1
    RHS       C292      -1
    RHS       C294      -1
    RHS       C295      -1
    RHS       C300      -1
    RHS       C302      -1
    RHS       C306      -1
    RHS       C307      -1
    RHS       C308      -1
    RHS       C310      -1
    RHS       C311      -1
    RHS       C312      -1
    RHS       C313      -1
    RHS       C314      -1
    RHS       C315      -1
    RHS       C316      -1
    RHS       C317      -1
    RHS       C318      -1
    RHS       C320      -1
    RHS       C322      -1
    RHS       C324      -1
    RHS       C325      -1
    RHS       C327      -1
    RHS       C328      -1
    RHS       C330      -1
    RHS       C331      -1
    RHS       C332      -1
    RHS       C333      -1
    RHS       C335      -1
    RHS       C336      -1
    RHS       C338      -1
    RHS       C339      -1
    RHS       C343      -1
    RHS       C346      -1
    RHS       C348      -1
    RHS       C351      -1
    RHS       C355      -1
    RHS       C357      -1
    RHS       C360      -1
    RHS       C361      -1
    RHS       C362      -1
    RHS       C363      -1
    RHS       C365      -1
    RHS       C366      -1
    RHS       C367      -1
    RHS       C368      -1
    RHS       C369      -1
    RHS       C370      -1
    RHS       C371      -1
    RHS       C374      -1
    RHS       C379      -1
    RHS       C383      -1
    RHS       C385      -1
    RHS       C388      -1
    RHS       C391      -1
    RHS       C392      -1
    RHS       C394      -1
    RHS       C396      -1
    RHS       C397      -1
    RHS       C399      -1
BOUNDS
 UP BOUND     x2        1
 UP BOUND     x5        1
 UP BOUND     x9        1
 UP BOUND     x10       1
 UP BOUND     x11       1
 UP BOUND     x12       1
 UP BOUND     x17       1
 UP BOUND     x18       1
 UP BOUND     x20       1
 UP BOUND     x22       1
 UP BOUND     x23       1
 UP BOUND     x24       1
 UP BOUND     x29       1
 UP BOUND     x32       1
 UP BOUND     x33       1
 UP BOUND     x34       1
 UP BOUND     x36       1
 UP BOUND     x38       1
 UP BOUND     x39       1
 UP BOUND     x40       1
 UP BOUND     x41       1
 UP BOUND     x42       1
 UP BOUND     x43       1
 UP BOUND     x45       1
 UP BOUND     x48       1
 UP BOUND     x49       1
 UP BOUND     x50       1
 UP BOUND     x52       1
 UP BOUND     x53       1
 UP BOUND     x56       1
 UP BOUND     x57       1
 UP BOUND     x61       1
 UP BOUND     x62       1
 UP BOUND     x63       1
 UP BOUND     x64       1
 UP BOUND     x67       1
 UP BOUND     x69       1
 UP BOUND     x71       1
 UP BOUND     x72       1
 UP BOUND     x73       1
 UP BOUND     x79       1
 UP BOUND     x81       1
 UP BOUND     x84       1
 UP BOUND     x85       1
 UP BOUND     x88       1
 UP BOUND     x90       1
 UP BOUND     x92       1
 UP BOUND     x93       1
 UP BOUND     x102      1
 UP BOUND     x103      1
 UP BOUND     x104      1
 UP BOUND     x105      1
 UP BOUND     x106      1
 UP BOUND     x107      1
 UP BOUND     x109      1
 UP BOUND     x111      1
 UP BOUND     x112      1
 UP BOUND     x114      1
 UP BOUND     x118      1
 UP BOUND     x119      1
 UP BOUND     x121      1
 UP BOUND     x122      1
 UP BOUND     x126      1
 UP BOUND     x128      1
 UP BOUND     x129      1
 UP BOUND     x131      1
 UP BOUND     x133      1
 UP BOUND     x134      1
 UP BOUND     x135      1
 UP BOUND     x136      1
 UP BOUND     x137      1
 UP BOUND     x138      1
 UP BOUND     x141      1
 UP BOUND     x142      1
 UP BOUND     x144      1
 UP BOUND     x145      1
 UP BOUND     x146      1
 UP BOUND     x152      1
 UP BOUND     x156      1
 UP BOUND     x157      1
 UP BOUND     x159      1
 UP BOUND     x163      1
 UP BOUND     x166      1
 UP BOUND     x168      1
 UP BOUND     x169      1
 UP BOUND     x171      1
 UP BOUND     x172      1
 UP BOUND     x174      1
 UP BOUND     x175      1
 UP BOUND     x176      1
 UP BOUND     x177      1
 UP BOUND     x182      1
 UP BOUND     x185      1
 UP BOUND     x189      1
 UP BOUND     x191      1
 UP BOUND     x192      1
 UP BOUND     x193      1
 UP BOUND     x194      1
 UP BOUND     x196      1
 UP BOUND     x197      1
 UP BOUND     x200      1
 UP BOUND     x202      1
 UP BOUND     x203      1
 UP BOUND     x205      1
 UP BOUND     x207      1
 UP BOUND     x208      1
 UP BOUND     x211      1
 UP BOUND     x212      1
 UP BOUND     x213      1
 UP BOUND     x214      1
 UP BOUND     x215      1
 UP BOUND     x218      1
 UP BOUND     x219      1
 UP BOUND     x221      1
 UP BOUND     x222      1
 UP BOUND     x223      1
 UP BOUND     x224      1
 UP BOUND     x226      1
 UP BOUND     x227      1
 UP BOUND     x228      1
 UP BOUND     x230      1
 UP BOUND     x231      1
 UP BOUND     x232      1
 UP BOUND     x234      1
 UP BOUND     x236      1
 UP BOUND     x239      1
 UP BOUND     x242      1
 UP BOUND     x243      1
 UP BOUND     x246      1
 UP BOUND     x247      1
 UP BOUND     x248      1
 UP BOUND     x249      1
 UP BOUND     x252      1
 UP BOUND     x253      1
 UP BOUND     x254      1
 UP BOUND     x255      1
 UP BOUND     x256      1
 UP BOUND     x257      1
 UP BOUND     x261      1
 UP BOUND     x265      1
 UP BOUND     x268      1
 UP BOUND     x269      1
 UP BOUND     x271      1
 UP BOUND     x273      1
 UP BOUND     x277      1
 UP BOUND     x278      1
 UP BOUND     x279      1
 UP BOUND     x280      1
 UP BOUND     x281      1
 UP BOUND     x282      1
 UP BOUND     x283      1
 UP BOUND     x288      1
 UP BOUND     x289      1
 UP BOUND     x293      1
 UP BOUND     x294      1
 UP BOUND     x297      1
 UP BOUND     x299      1
 UP BOUND     x300      1
 UP BOUND     x301      1
 UP BOUND     x302      1
 UP BOUND     x304      1
 UP BOUND     x306      1
 UP BOUND     x307      1
 UP BOUND     x309      1
 UP BOUND     x310      1
 UP BOUND     x313      1
 UP BOUND     x314      1
 UP BOUND     x315      1
 UP BOUND     x317      1
 UP BOUND     x318      1
 UP BOUND     x319      1
 UP BOUND     x322      1
 UP BOUND     x323      1
 UP BOUND     x324      1
 UP BOUND     x326      1
 UP BOUND     x327      1
 UP BOUND     x328      1
 UP BOUND     x329      1
 UP BOUND     x333      1
 UP BOUND     x334      1
 UP BOUND     x335      1
 UP BOUND     x336      1
 UP BOUND     x338      1
 UP BOUND     x340      1
 UP BOUND     x341      1
 UP BOUND     x343      1
 UP BOUND     x346      1
 UP BOUND     x347      1
 UP BOUND     x350      1
 UP BOUND     x351      1
 UP BOUND     x352      1
 UP BOUND     x354      1
 UP BOUND     x355      1
 UP BOUND     x357      1
 UP BOUND     x359      1
 UP BOUND     x361      1
 UP BOUND     x362      1
 UP BOUND     x364      1
 UP BOUND     x369      1
 UP BOUND     x370      1
 UP BOUND     x373      1
 UP BOUND     x376      1
 UP BOUND     x377      1
 UP BOUND     x379      1
 UP BOUND     x380      1
 UP BOUND     x382      1
 UP BOUND     x387      1
 UP BOUND     x392      1
 UP BOUND     x393      1
 UP BOUND     x397      1
 UP BOUND     x399      1
 UP BOUND     x400      1
ENDATA
